p cnf 64 234
-3 1 0
-3 2 0
-1 -2 3 0
-6 4 0
-6 5 0
-4 -5 6 0
8 7 0
8 5 0
-7 -5 -8 0
9 -8 0
9 7 0
8 -7 -9 0
-6 9 -10 0
6 -9 -10 0
-6 -9 10 0
6 9 10 0
-12 -11 0
-12 -8 0
11 8 12 0
-13 -8 0
-13 12 0
8 -12 13 0
-8 13 -14 0
8 -13 -14 0
-8 -13 14 0
8 13 14 0
-8 15 0
8 15 0
-16 -15 0
-16 9 0
15 -9 16 0
17 2 0
17 16 0
-2 -16 -17 0
-18 -14 0
-18 -17 0
14 17 18 0
-18 19 -20 0
18 -19 -20 0
-18 -19 20 0
18 19 20 0
-21 -10 0
-21 -20 0
10 20 21 0
5 4 -22 0
-5 -4 -22 0
5 -4 22 0
-5 4 22 0
23 11 -24 0
-23 -11 -24 0
23 -11 24 0
-23 11 24 0
-25 19 0
-25 24 0
-19 -24 25 0
-26 5 0
-26 25 0
-5 -25 26 0
-27 -22 0
-27 -26 0
22 26 27 0
28 -21 0
28 27 0
21 -27 -28 0
30 12 0
30 29 0
-12 -29 -30 0
31 -24 0
31 -13 0
24 13 -31 0
5 -2 -32 0
-5 2 -32 0
5 2 32 0
-5 -2 32 0
33 32 0
33 5 0
-32 -5 -33 0
34 -31 0
34 33 0
31 -33 -34 0
35 30 0
35 -34 0
-30 34 -35 0
36 15 0
36 19 0
-15 -19 -36 0
13 12 -37 0
-13 -12 -37 0
13 -12 37 0
-13 12 37 0
-36 37 -38 0
36 -37 -38 0
-36 -37 38 0
36 37 38 0
-35 38 -39 0
35 -38 -39 0
-35 -38 39 0
35 38 39 0
-40 12 0
-40 -12 0
-41 33 0
-41 31 0
-33 -31 41 0
42 7 0
42 33 0
-7 -33 -42 0
41 -42 -43 0
-41 42 -43 0
41 42 43 0
-41 -42 43 0
44 11 0
44 -11 0
-5 -8 -45 0
5 8 -45 0
-5 8 45 0
5 -8 45 0
46 19 0
46 13 0
-19 -13 -46 0
47 45 0
47 -46 0
-45 46 -47 0
44 -47 -48 0
-44 47 -48 0
44 47 48 0
-44 -47 48 0
43 48 -49 0
-43 -48 -49 0
43 -48 49 0
-43 48 49 0
50 -40 0
50 49 0
40 -49 -50 0
-39 50 -51 0
39 -50 -51 0
-39 -50 51 0
39 50 51 0
-28 51 -52 0
28 -51 -52 0
-28 -51 52 0
28 51 52 0
3 52 -53 0
-3 -52 -53 0
3 -52 53 0
-3 52 53 0
-14 -29 -54 0
14 29 -54 0
-14 29 54 0
14 -29 54 0
1 32 -55 0
-1 -32 -55 0
1 -32 55 0
-1 32 55 0
54 55 -56 0
-54 -55 -56 0
54 -55 56 0
-54 55 56 0
57 -31 0
57 29 0
31 -29 -57 0
-58 -56 0
-58 -57 0
56 57 58 0
60 -33 0
60 -59 0
33 59 -60 0
61 -5 0
61 11 0
5 -11 -61 0
60 -61 -62 0
-60 61 -62 0
60 61 62 0
-60 -61 62 0
-63 -58 0
-63 62 0
58 -62 63 0
-64 53 0
-64 -63 0
-53 63 64 0
50 -55 37 24 0
-16 -9 -47 0
-57 -33 48 0
-64 61 0
33 -50 0
39 -42 -57 -63 0
-41 -28 -3 33 0
57 43 -25 23 0
24 -54 0
16 -12 41 18 0
20 -4 0
-52 -24 0
-46 32 -52 34 0
23 11 -26 1 0
-19 7 0
19 28 3 -26 37 -24 0
-19 55 0
59 43 27 0
-64 -53 46 -37 -38 0
-45 58 0
64 30 -25 34 -36 0
44 12 28 -9 -3 -14 0
-45 -49 -1 7 -51 57 0
64 35 0
64 -31 -21 -11 28 -27 0
35 -16 0
20 30 -17 0
-34 -58 -10 -16 0
-10 -3 -49 52 0
-11 56 0
16 -5 0
-58 -12 -1 -5 0
34 -17 0
59 -1 -51 0
47 -2 3 -11 31 0
37 -40 55 -38 56 6 0
32 40 41 0
33 51 -30 -32 0
-48 -44 35 6 0
-29 15 54 -26 -47 -22 0
25 34 63 0
-3 -9 -44 2 0
-10 -45 -55 0
59 17 22 -24 -37 0
-40 54 52 62 0
17 -56 10 0
-42 -20 -3 0
39 -42 -33 0
27 55 64 -8 0
44 -23 0
13 -28 0
-61 9 -30 18 0
-5 32 -55 0
-26 -19 24 -62 -57 -47 0
64 0
